n_res = 4;
rc = [ 16, 17, 16, 19 ];
n_tasks = 15;
d = [ 1, 3, 6, 8, 25, 250, 125, 250, 50, 75, 75, 1, 10, 3, 2 ];
rr = [| 0, 9, 0, 1, 0, 0, 0, 7, 4, 4, 10, 0, 0, 5, 0
      | 4, 0, 9, 0, 1, 4, 0, 10, 0, 0, 4, 9, 6, 0, 9
      | 0, 0, 0, 0, 2, 8, 7, 10, 0, 0, 0, 0, 0, 0, 9
      | 0, 0, 5, 2, 6, 2, 2, 10, 0, 1, 0, 0, 0, 1, 0 |];
suc = [ { 11, 13 },
       { 4 },
       { 6, 7, 9 },
       { 5, 6, 8 },
       { 11, 12, 15 },
       {  },
       { 10 },
       { 9, 11 },
       {  },
       { 13, 14 },
       {  },
       {  },
       { 15 },
       { 15 },
       {  } ];
